1 -7 0
1 7 0
h 3 -9 0
h 8 -5 0
h 7 9 0
h -4 2 0
h 4 -2 0
h -1 17 0
1 -17 0
h -5 -9 0
h -9 1 0
h 19 7 0
h 19 -8 0
1 -19 0
h 8 4 -9 0
h -2 -4 0
h 8 3 0
h 24 3 0
1 -24 0
h -3 5 0
h 38 -9 0
1 -38 0
h 5 -7 0
h 5 3 0
h -8 5 0
